82 53 19 72 7 92 81 23 83 74 40 73 42 59 27 34 62 65 63 12 61 16 10 80 24 21 9 29 58 96 30 51 47 33 6 32 88 98 87 49 67 17 54 14 13 79 44 15 2 37 57 4 95 18 22 5 86 64 39 75 11 97 36 71 78 90 55 8 70 26 99 77 41 84 66 48 93 1 69 45 46 43 60 52 20 76 31 38 94 68 0 56 85 28 91 3 50 89 25 35 

